Pt surf0 ! GENERATED BY GDIS 1.00.0 (C) 2021
1.000000
     3.98960000     0.00000000     0.00000000
     0.00000000     3.98960000     0.00000000
     0.00000000     0.00000000    15.95840000
Pt C O
  10 1 1
Selective dynamics
Direct
    0.00000000    0.00000000    0.00000000  T   T   T
    0.50000000    0.50000000    0.00000000  T   T   T
    0.00000000    0.50000000    0.12500000  T   T   T
    0.50000000    0.00000000    0.12500000  T   T   T
    0.00000000    0.00000000    0.24611345  T   T   T
    0.50000000    0.50000000    0.25005719  T   T   T
    0.00000000    0.50000000    0.37264267  T   T   T
    0.50000000    0.00000000    0.37264267  T   T   T
    0.00000000    0.00000000    0.50489676  T   T   T
    0.50000000    0.50000000    0.49002017  T   T   T
    0.00000000    0.00000000    0.62021031  T   T   T
    0.00000000    0.00000000    0.69289585  T   T   T
