single conv

# Created by GDIS version 1.00.0
#

name baso4-011


dump baso4-011_000001.res

svectors
8.888455  0.000000
0.000000  8.997404
cartesian region 1
O    core     3.648790    7.506470   -0.857040   -0.8400000
O    core     9.684280    3.007500   -0.858270   -0.8400000
Ba   core     2.662030    1.140280   -1.117390    2.0000000
Ba   core     1.782670    5.639090   -1.117630    2.0000000
O    core     0.788630    8.198420   -1.389570   -0.8400000
O    core     3.655830    3.699700   -1.389740   -0.8400000
O    core     7.433570    2.480650   -1.555710   -0.8400000
O    core     5.898920    6.978850   -1.556000   -0.8400000
S    core     4.714700    7.703250   -1.871580    1.3600000
S    core     8.617750    3.204840   -1.871960    1.3600000
O    core     8.353220    4.621180   -1.965690   -0.8400000
O    core     4.979600    9.119500   -1.965990   -0.8400000
S    core     0.570890    8.227720   -2.836890    1.3600000
S    core     3.873380    3.728830   -2.837080    1.3600000
O    core     4.228730    7.262840   -3.157860   -0.8400000
O    core     9.102560    2.764710   -3.158770   -0.8400000
O    core    -0.764390    8.627940   -3.180520   -0.8400000
O    core     5.208510    4.129320   -3.180920   -0.8400000
O    core     3.639170    2.401470   -3.333400   -0.8400000
O    core     0.805350    6.900470   -3.333440   -0.8400000
O    core     1.552310    9.109860   -3.420330   -0.8400000
O    core     2.891650    4.610610   -3.420570   -0.8400000
Ba   core     7.020750    6.000130   -3.910990    2.0000000
Ba   core     6.312160    1.501510   -3.911010    2.0000000
Ba   core     1.741270    2.174430   -5.294620    2.0000000
Ba   core     2.702980    6.673030   -5.294740    2.0000000
O    core     3.954650    0.397460   -5.676820   -0.8400000
O    core     0.489600    4.896350   -5.676880   -0.8400000
O    core     7.440510    7.879280   -5.964490   -0.8400000
O    core     5.892230    3.380520   -5.964660   -0.8400000
O    core     5.189520    5.661600   -6.103200   -0.8400000
O    core     8.143250   10.160300   -6.103240   -0.8400000
O    core     9.752990    8.438980   -6.284030   -0.8400000
O    core     3.579750    3.940300   -6.284100   -0.8400000
S    core     8.383210    8.800820   -6.583020    1.3600000
S    core     4.949530    4.302140   -6.583080    1.3600000
S    core     4.020160    0.362700   -7.127050    1.3600000
S    core     0.424090    4.861480   -7.127090    1.3600000
O    core     0.693410    3.499400   -7.565450   -0.8400000
O    core     3.750820   -0.999340   -7.565490   -0.8400000
O    core     5.323320    0.753530   -7.572880   -0.8400000
O    core    -0.879060    5.252310   -7.572940   -0.8400000
O    core     2.995670    1.244370   -7.684540   -0.8400000
O    core     1.448590    5.743080   -7.684640   -0.8400000
O    core     8.216870    8.774480   -8.028080   -0.8400000
O    core     5.115840    4.275890   -8.028140   -0.8400000
Ba   core     7.184510    2.442230   -8.630650    2.0000000
Ba   core     6.148180    6.940940   -8.630700    2.0000000
cartesian region 2
Ba   core     2.776452    3.437807   -9.448592    2.0000000
Ba   core     1.667775    7.936510   -9.448592    2.0000000
O    core     3.773258    6.139847  -10.036436   -0.8400000
O    core     0.670970    1.641146  -10.036436   -0.8400000
O    core     7.376361    4.622920  -10.356255   -0.8400000
O    core     5.956321    0.124219  -10.356255   -0.8400000
O    core     8.217485    6.822665  -10.559398   -0.8400000
O    core     5.115197    2.323964  -10.559398   -0.8400000
O    core     9.717027    5.001677  -10.646339   -0.8400000
O    core     3.615655    0.502975  -10.646339   -0.8400000
S    core     4.945185    0.949579  -10.988388    1.3600000
S    core     8.387497    5.448282  -10.988388    1.3600000
S    core     0.500957    1.585099  -11.475124    1.3600000
S    core     3.943270    6.083801  -11.475124    1.3600000
O    core     5.272799    6.530405  -11.817172   -0.8400000
O    core    -0.828572    2.031704  -11.817173   -0.8400000
O    core     3.773258    4.709417  -11.904114   -0.8400000
O    core     0.670970    0.210716  -11.904114   -0.8400000
O    core     2.932133    6.909162  -12.107257   -0.8400000
O    core     1.512094    2.410460  -12.107257   -0.8400000
O    core     8.217485    5.392235  -12.427075   -0.8400000
O    core     5.115197    0.893533  -12.427076   -0.8400000
Ba   core     7.220679    8.094275  -13.014920    2.0000000
Ba   core     6.112003    3.595573  -13.014920    2.0000000
Ba   core     2.776452    0.111336  -13.791885    2.0000000
Ba   core     1.667775    4.610038  -13.791885    2.0000000
O    core     3.773258    2.813375  -14.379729   -0.8400000
O    core     0.670970    7.312078  -14.379730   -0.8400000
O    core     7.376361    1.296449  -14.699548   -0.8400000
O    core     5.956321    5.795151  -14.699548   -0.8400000
O    core     8.217485    3.496193  -14.902691   -0.8400000
O    core     5.115197    7.994895  -14.902691   -0.8400000
O    core     9.717027    1.675205  -14.989632   -0.8400000
O    core     3.615655    6.173907  -14.989632   -0.8400000
S    core     4.945185    6.620511  -15.331681    1.3600000
S    core     8.387497    2.121810  -15.331681    1.3600000
S    core     0.500957    7.256031  -15.818417    1.3600000
S    core     3.943270    2.757329  -15.818417    1.3600000
O    core     5.272799    3.203934  -16.160466   -0.8400000
O    core    -0.828572    7.702636  -16.160466   -0.8400000
O    core     3.773258    1.382945  -16.247407   -0.8400000
O    core     0.670970    5.881647  -16.247407   -0.8400000
O    core     2.932133    3.582690  -16.450550   -0.8400000
O    core     1.512094    8.081392  -16.450550   -0.8400000
O    core     8.217485    2.065763  -16.770368   -0.8400000
O    core     5.115197    6.564465  -16.770369   -0.8400000
Ba   core     7.220679    4.767803  -17.358213    2.0000000
Ba   core     6.112003    0.269101  -17.358213    2.0000000
Ba   core     2.776452    5.782268  -18.135178    2.0000000
Ba   core     1.667775    1.283566  -18.135178    2.0000000
O    core     3.773258    8.484307  -18.723022   -0.8400000
O    core     0.670970    3.985606  -18.723023   -0.8400000
O    core     7.376361    6.967381  -19.042841   -0.8400000
O    core     5.956321    2.468679  -19.042841   -0.8400000
O    core     8.217485    9.167125  -19.245984   -0.8400000
O    core     5.115197    4.668424  -19.245984   -0.8400000
O    core     9.717027    7.346137  -19.332925   -0.8400000
O    core     3.615655    2.847435  -19.332925   -0.8400000
S    core     4.945185    3.294040  -19.674974    1.3600000
S    core     8.387497    7.792742  -19.674974    1.3600000
S    core     0.500957    3.929559  -20.161710    1.3600000
S    core     3.943270    8.428261  -20.161710    1.3600000
O    core     5.272799    8.874865  -20.503759   -0.8400000
O    core    -0.828572    4.376164  -20.503759   -0.8400000
O    core     3.773258    7.053877  -20.590700   -0.8400000
O    core     0.670970    2.555176  -20.590700   -0.8400000
O    core     2.932133    9.253622  -20.793843   -0.8400000
O    core     1.512094    4.754920  -20.793843   -0.8400000
O    core     8.217485    7.736695  -21.113661   -0.8400000
O    core     5.115197    3.237994  -21.113662   -0.8400000
Ba   core     7.220679    1.441331  -21.701506    2.0000000
Ba   core     6.112003    5.940033  -21.701506    2.0000000
Ba   core     2.776452    2.455796  -22.478471    2.0000000
Ba   core     1.667775    6.954498  -22.478471    2.0000000
O    core     3.773258    5.157835  -23.066315   -0.8400000
O    core     0.670970    0.659134  -23.066316   -0.8400000
O    core     7.376361    3.640909  -23.386134   -0.8400000
O    core     5.956321    8.139611  -23.386134   -0.8400000
O    core     8.217485    5.840653  -23.589277   -0.8400000
O    core     5.115197   10.339356  -23.589277   -0.8400000
O    core     9.717027    4.019665  -23.676218   -0.8400000
O    core     3.615655    8.518367  -23.676219   -0.8400000
S    core     4.945185    8.964971  -24.018267    1.3600000
S    core     8.387497    4.466270  -24.018267    1.3600000
S    core     0.500957    0.603087  -24.505003    1.3600000
S    core     3.943270    5.101790  -24.505003    1.3600000
O    core     5.272799    5.548394  -24.847052   -0.8400000
O    core    -0.828572    1.049692  -24.847052   -0.8400000
O    core     3.773258    3.727405  -24.933993   -0.8400000
O    core     0.670970   -0.771296  -24.933993   -0.8400000
cartesian region 3 rigid z 
O    core     2.304409    4.346298  -25.137136   -0.8400000
O    core     4.481352    0.161117  -25.137136   -0.8400000
O    core     7.114347    7.010978  -25.456954   -0.8400000
O    core     1.739635    7.998391  -25.456955   -0.8400000
Ba   core     4.498868    8.216760  -26.044799    2.0000000
Ba   core     6.895978    4.251745  -26.044799    2.0000000
Ba   core     0.638990    5.791552  -26.821764    2.0000000
Ba   core     3.036099    1.826536  -26.821764    2.0000000
O    core     5.795333    2.044905  -27.409608   -0.8400000
O    core     0.420621    3.032319  -27.409609   -0.8400000
O    core     9.415740    3.520055  -27.729427   -0.8400000
O    core     5.230558    5.696998  -27.729427   -0.8400000
O    core     8.455051    5.670274  -27.932570   -0.8400000
O    core     3.080339    6.657688  -27.932570   -0.8400000
O    core    10.803020    5.442977  -28.019511   -0.8400000
O    core     3.307636    4.309718  -28.019512   -0.8400000
S    core     3.931959    5.565635  -28.361560    1.3600000
S    core     9.547103    4.818654  -28.361560    1.3600000
S    core     0.340035    2.872471  -28.848296    1.3600000
S    core     5.955180    2.125492  -28.848296    1.3600000
O    core     6.579502    3.381407  -29.190345   -0.8400000
O    core    -0.915882    2.248149  -29.190345   -0.8400000
O    core     6.806800    1.033439  -29.277286   -0.8400000
O    core     1.432088    2.020853  -29.277286   -0.8400000
O    core     4.656580    1.994128  -29.480429   -0.8400000
O    core     0.471398    4.171071  -29.480430   -0.8400000
O    core     9.466517    4.658807  -29.800248   -0.8400000
O    core     4.091806    5.646221  -29.800248   -0.8400000
Ba   core     6.851039    5.864589  -30.388092    2.0000000
Ba   core     2.886023    8.261700  -30.388092    2.0000000
Ba   core     2.991161    3.439381  -31.165057    2.0000000
Ba   core     5.388270   -0.525634  -31.165057    2.0000000
O    core     1.785378    6.054860  -31.752902   -0.8400000
O    core     2.772792    0.680149  -31.752902   -0.8400000
O    core     5.405786    7.530009  -32.072720   -0.8400000
O    core     7.582728    3.344827  -32.072720   -0.8400000
O    core     4.445096    9.680228  -32.275863   -0.8400000
O    core     5.432510    4.305517  -32.275863   -0.8400000
O    core     6.793066    9.452931  -32.362804   -0.8400000
O    core     5.659807    1.957547  -32.362805   -0.8400000
S    core     6.284129    3.213464  -32.704853    1.3600000
S    core     5.537149    8.828609  -32.704853    1.3600000
S    core     2.692205    0.520300  -33.191589    1.3600000
S    core     1.945225    6.135446  -33.191589    1.3600000
O    core     2.569548    7.391362  -33.533638   -0.8400000
O    core     1.436289   -0.104021  -33.533638   -0.8400000
O    core     2.796845    5.043393  -33.620579   -0.8400000
O    core     3.784259   -0.331318  -33.620580   -0.8400000
O    core     0.646626    6.004082  -33.823722   -0.8400000
O    core     2.823569    1.818901  -33.823723   -0.8400000
O    core     5.456563    8.668761  -34.143541   -0.8400000
O    core     6.443976    3.294050  -34.143541   -0.8400000
Ba   core     9.203209    3.512418  -34.731385    2.0000000
Ba   core     5.238194    5.909529  -34.731385    2.0000000

sbulkenergy 0.000000

print 1
